Instance0
Objective;Best_Integer;Best_Bound
262.6193;639.6325;262.6193
289.1694;639.6325;Cuts:8
308.4421;462.8177;Cuts:11
321.5293;462.8177;Cuts:13
330.9414;415.0905;Cuts:12
337.9254;415.0905;Cuts:10
340.0787;415.0905;Cuts:5
341.3757;415.0905;Cuts:5
341.5853;415.0905;LiftProj:4
341.8375;415.0905;LiftProj:3
342.4261;415.0905;LiftProj:4
342.6292;415.0905;LiftProj:2
342.6331;415.0905;LiftProj:4
342.6927;415.0905;LiftProj:3
342.7129;415.0905;LiftProj:3
342.7129;415.0905;342.8024
CPXPARAM_MIP_Cuts_Disjunctive-LiftProj:Disjunctive 8
CPXPARAM_MIP_Cuts_Disjunctive-LiftProj:LiftProj 6
Instance1
Objective;Best_Integer;Best_Bound
integral;262.6193;262.6193
CPXPARAM_MIP_Cuts_Disjunctive-LiftProj:Disjunctive 0
CPXPARAM_MIP_Cuts_Disjunctive-LiftProj:LiftProj 0
Instance2
Objective;Best_Integer;Best_Bound
269.4766;639.6325;269.4766
279.5547;639.6325;Cuts:7
307.2092;583.4780;Cuts:11
324.3847;415.0905;Cuts:16
338.1541;415.0905;Cuts:13
341.8133;415.0905;Cuts:10
345.6008;415.0905;Cuts:6
346.7623;415.0905;LiftProj:7
347.0789;415.0905;LiftProj:5
347.3290;415.0905;LiftProj:8
348.4080;415.0905;LiftProj:8
350.0288;415.0905;LiftProj:8
351.9291;415.0905;LiftProj:7
353.6975;415.0905;LiftProj:6
356.2508;415.0905;Cuts:9
357.4429;415.0905;LiftProj:4
357.8041;415.0905;LiftProj:7
359.3893;415.0905;LiftProj:4
360.8012;415.0905;LiftProj:4
361.3627;415.0905;LiftProj:3
362.2689;415.0905;Cuts:6
362.7238;415.0905;LiftProj:6
363.2073;415.0905;LiftProj:8
364.0901;415.0905;Cuts:5
364.9090;415.0905;LiftProj:5
365.2754;415.0905;Cuts:10
365.7728;415.0905;Cuts:4
365.9651;415.0905;LiftProj:4
367.4195;415.0905;LiftProj:4
367.7754;415.0905;LiftProj:5
367.9282;415.0905;LiftProj:4
368.2687;415.0905;LiftProj:3
368.5692;415.0905;Cuts:10
368.8392;415.0905;LiftProj:5
369.4697;415.0905;LiftProj:5
369.6786;415.0905;LiftProj:7
370.0262;415.0905;LiftProj:4
370.4145;415.0905;LiftProj:5
370.6610;415.0905;LiftProj:5
370.8213;415.0905;LiftProj:5
371.0333;415.0905;LiftProj:5
371.1271;415.0905;LiftProj:4
371.1327;415.0905;LiftProj:4
371.9930;415.0905;372.3972
CPXPARAM_MIP_Cuts_Disjunctive-LiftProj:Disjunctive 25
CPXPARAM_MIP_Cuts_Disjunctive-LiftProj:LiftProj 1
Instance3
Objective;Best_Integer;Best_Bound
314.8220;883.5817;314.8220
integral;314.8876;Disjcuts:1
cutoff;314.8876;40
CPXPARAM_MIP_Cuts_Disjunctive-LiftProj:Disjunctive 0
CPXPARAM_MIP_Cuts_Disjunctive-LiftProj:LiftProj 1
Instance4
Objective;Best_Integer;Best_Bound
405.5114;634.5912;405.5114
410.2300;634.5912;Cuts:7
415.9441;455.9855;Cuts:11
420.7411;455.9855;Cuts:10
423.4574;455.9855;Cuts:10
425.5466;455.9855;Cuts:9
425.6776;455.9855;Cuts:4
425.9040;455.9855;LiftProj:2
425.9116;455.9855;LiftProj:3
426.0593;455.9855;LiftProj:3
426.0888;455.9855;LiftProj:3
426.5692;441.1644;427.2094
CPXPARAM_MIP_Cuts_Disjunctive-LiftProj:Disjunctive 4
CPXPARAM_MIP_Cuts_Disjunctive-LiftProj:LiftProj 4
Instance5
Objective;Best_Integer;Best_Bound
405.5114;693.8542;405.5114
integral;405.9187;405.9187
CPXPARAM_MIP_Cuts_Disjunctive-LiftProj:Disjunctive 0
CPXPARAM_MIP_Cuts_Disjunctive-LiftProj:LiftProj 0
Instance6
Objective;Best_Integer;Best_Bound
405.5114;648.3061;405.5114
412.6168;648.3061;Cuts:8
416.0763;449.4074;Cuts:13
420.4557;449.4074;Cuts:11
422.2530;449.4074;Cuts:11
423.5231;449.4074;Cuts:12
424.1158;449.4074;LiftProj:5
424.7368;449.4074;LiftProj:4
425.9593;449.4074;LiftProj:4
426.6915;449.4074;Cuts:6
427.9169;449.4074;LiftProj:5
428.1059;449.4074;LiftProj:4
428.5252;449.4074;LiftProj:4
428.6144;441.1644;LiftProj:3
428.6520;441.1644;LiftProj:2
429.3104;441.1644;LiftProj:3
429.8094;441.1644;LiftProj:3
429.9765;441.1644;LiftProj:5
430.0023;441.1644;LiftProj:1
430.9682;441.1644;430.9972
CPXPARAM_MIP_Cuts_Disjunctive-LiftProj:Disjunctive 11
CPXPARAM_MIP_Cuts_Disjunctive-LiftProj:LiftProj 2
Instance7
Objective;Best_Integer;Best_Bound
integral;425.0746;425.0746
CPXPARAM_MIP_Cuts_Disjunctive-LiftProj:Disjunctive 0
CPXPARAM_MIP_Cuts_Disjunctive-LiftProj:LiftProj 0
Instance8
Objective;Best_Integer;Best_Bound
484.8467;648.8417;484.8467
509.4989;648.8417;Cuts:8
517.7960;648.8417;Cuts:11
527.8600;648.8417;Cuts:11
534.5969;607.3004;Cuts:10
536.2026;607.3004;Cuts:9
536.4215;607.3004;LiftProj:4
537.2799;607.3004;LiftProj:5
537.4582;607.3004;LiftProj:3
537.6131;607.3004;Cuts:5
537.7024;607.3004;LiftProj:5
538.0399;607.3004;LiftProj:4
538.1975;607.3004;LiftProj:6
538.5502;607.3004;LiftProj:6
540.0314;607.3004;LiftProj:5
540.3021;607.3004;Cuts:8
540.8282;607.3004;LiftProj:5
541.0224;607.3004;LiftProj:5
541.1357;607.3004;LiftProj:5
541.1856;607.3004;LiftProj:5
541.2613;607.3004;LiftProj:4
541.2613;607.3004;541.2708
CPXPARAM_MIP_Cuts_Disjunctive-LiftProj:Disjunctive 17
CPXPARAM_MIP_Cuts_Disjunctive-LiftProj:LiftProj 2
Instance9
Objective;Best_Integer;Best_Bound
integral;484.8467;484.8467
CPXPARAM_MIP_Cuts_Disjunctive-LiftProj:Disjunctive 0
CPXPARAM_MIP_Cuts_Disjunctive-LiftProj:LiftProj 0
Instance10
Objective;Best_Integer;Best_Bound
498.6071;845.6683;498.6071
504.2498;697.1349;Disjcuts:5
523.6596;648.8417;Cuts:12
533.4830;626.4130;Cuts:11
534.4336;626.4130;Cuts:10
536.9113;626.4130;Cuts:8
539.9743;626.4130;Cuts:5
540.3804;626.4130;Cuts:4
541.1393;626.4130;Cuts:4
541.6227;626.4130;LiftProj:4
544.1547;626.4130;Cuts:9
545.3846;626.4130;Cuts:7
550.9325;626.4130;LiftProj:5
552.3531;607.3004;LiftProj:7
553.4225;607.3004;Cuts:7
554.0440;607.3004;Cuts:6
555.1199;607.3004;LiftProj:5
556.0801;607.3004;LiftProj:6
556.8367;607.3004;LiftProj:6
557.3449;607.3004;LiftProj:7
558.1552;607.3004;LiftProj:5
558.8901;607.3004;LiftProj:5
559.0231;607.3004;LiftProj:7
559.2136;607.3004;LiftProj:5
559.3080;607.3004;LiftProj:4
559.4287;607.3004;LiftProj:7
561.4621;607.3004;561.5983
CPXPARAM_MIP_Cuts_Disjunctive-LiftProj:Disjunctive 24
CPXPARAM_MIP_Cuts_Disjunctive-LiftProj:LiftProj 0
Instance11
Objective;Best_Integer;Best_Bound
integral;561.1585;561.1585
CPXPARAM_MIP_Cuts_Disjunctive-LiftProj:Disjunctive 0
CPXPARAM_MIP_Cuts_Disjunctive-LiftProj:LiftProj 0
Instance12
Objective;Best_Integer;Best_Bound
386.2283;534.4657;386.2283
391.1700;534.4657;Cuts:7
400.3996;521.2586;Cuts:12
411.3872;474.3633;Cuts:10
414.4044;474.3633;Cuts:13
415.7800;474.3633;Cuts:10
416.0648;474.3633;Cuts:6
416.5673;474.3633;Cuts:6
416.6769;474.3633;LiftProj:5
416.9978;474.3633;Cuts:8
417.2341;474.3633;Cuts:7
417.7434;474.3633;Cuts:7
418.4908;474.3633;Cuts:10
418.6692;474.3633;LiftProj:6
420.4033;474.3633;LiftProj:5
421.4418;474.3633;LiftProj:6
421.7773;474.3633;LiftProj:5
422.0403;474.3633;LiftProj:6
423.0649;474.3633;LiftProj:5
423.3568;474.3633;LiftProj:5
423.4871;474.3633;LiftProj:5
424.2074;474.3633;LiftProj:5
424.7422;474.3633;LiftProj:5
425.3471;474.3633;LiftProj:4
425.3839;474.3633;LiftProj:2
425.4691;474.3633;LiftProj:4
425.4691;474.3633;425.4826
CPXPARAM_MIP_Cuts_Disjunctive-LiftProj:Disjunctive 19
CPXPARAM_MIP_Cuts_Disjunctive-LiftProj:LiftProj 0
Instance13
Objective;Best_Integer;Best_Bound
integral;389.1110;389.1110
CPXPARAM_MIP_Cuts_Disjunctive-LiftProj:Disjunctive 0
CPXPARAM_MIP_Cuts_Disjunctive-LiftProj:LiftProj 0
Instance14
Objective;Best_Integer;Best_Bound
386.2283;534.4657;386.2283
389.5987;534.4657;Disjcuts:6
399.5175;526.4159;Cuts:12
406.6392;488.8119;Cuts:13
410.6380;488.8119;Cuts:13
413.6267;465.9177;Cuts:17
415.9340;465.9177;LiftProj:14
419.8561;465.9177;Cuts:9
421.6844;465.9177;LiftProj:6
423.8153;465.9177;LiftProj:8
425.1739;465.9177;LiftProj:10
426.6806;465.9177;LiftProj:6
428.4591;465.9177;LiftProj:6
429.8808;465.9177;LiftProj:7
430.4826;465.9177;LiftProj:8
430.9632;465.9177;LiftProj:6
431.5130;465.9177;LiftProj:8
432.3251;465.9177;LiftProj:6
433.9351;465.9177;LiftProj:6
434.2627;465.9177;LiftProj:6
434.3605;465.9177;LiftProj:5
435.6918;465.9177;LiftProj:6
436.1269;465.9177;LiftProj:6
437.2795;465.9177;LiftProj:4
437.4086;465.9177;LiftProj:6
437.7101;465.9177;LiftProj:5
437.9574;465.9177;LiftProj:4
437.9951;465.9177;LiftProj:6
438.0723;465.9177;LiftProj:4
438.0723;465.9177;438.1293
CPXPARAM_MIP_Cuts_Disjunctive-LiftProj:Disjunctive 18
CPXPARAM_MIP_Cuts_Disjunctive-LiftProj:LiftProj 0
Instance15
Objective;Best_Integer;Best_Bound
integral;410.1756;410.1756
CPXPARAM_MIP_Cuts_Disjunctive-LiftProj:Disjunctive 0
CPXPARAM_MIP_Cuts_Disjunctive-LiftProj:LiftProj 0
Instance16
Objective;Best_Integer;Best_Bound
417.5617;482.5302;417.5617
417.5617;482.5302;LiftProj:2
420.8337;479.1117;Cuts:7
423.9849;475.1344;Cuts:12
429.0289;465.5226;Cuts:11
432.7722;465.5226;Cuts:10
433.2842;465.5226;LiftProj:4
433.6659;465.5226;LiftProj:6
433.8645;465.5226;Cuts:9
434.1402;465.5226;Cuts:5
436.0737;465.5226;LiftProj:5
436.4359;465.5226;Cuts:10
436.8548;465.5226;Cuts:11
437.0750;465.5226;LiftProj:5
437.2239;465.5226;LiftProj:5
438.1621;465.5226;LiftProj:8
438.3368;465.5226;LiftProj:6
438.8906;465.5226;LiftProj:6
441.0327;465.5226;LiftProj:7
441.1305;465.5226;LiftProj:7
441.5447;465.5226;LiftProj:7
441.5842;465.5226;LiftProj:6
441.9305;465.5226;442.0062
CPXPARAM_MIP_Cuts_Disjunctive-LiftProj:Disjunctive 18
CPXPARAM_MIP_Cuts_Disjunctive-LiftProj:LiftProj 0
Instance17
Objective;Best_Integer;Best_Bound
integral;425.9937;425.9937
CPXPARAM_MIP_Cuts_Disjunctive-LiftProj:Disjunctive 0
CPXPARAM_MIP_Cuts_Disjunctive-LiftProj:LiftProj 0
Instance18
Objective;Best_Integer;Best_Bound
423.0032;673.4267;423.0032
424.6608;591.6412;Cuts:5
428.6685;465.5226;Cuts:11
428.9642;465.5226;Cuts:10
432.0871;465.5226;Cuts:13
432.2264;465.5226;Cuts:7
433.3857;465.5226;Cuts:7
433.8433;465.5226;Cuts:11
434.1281;465.5226;LiftProj:5
435.1224;465.5226;Cuts:6
436.5957;465.5226;Cuts:6
437.1169;465.5226;Cuts:5
437.4693;465.5226;Cuts:5
437.9537;465.5226;LiftProj:5
439.3578;465.5226;LiftProj:4
440.4080;465.5226;Cuts:8
440.9608;465.5226;LiftProj:6
441.4099;465.5226;LiftProj:7
441.6514;465.5226;LiftProj:6
441.6635;465.5226;LiftProj:5
441.6992;465.5226;LiftProj:9
443.3128;465.5226;443.5716
CPXPARAM_MIP_Cuts_Disjunctive-LiftProj:Disjunctive 14
CPXPARAM_MIP_Cuts_Disjunctive-LiftProj:LiftProj 1
Instance19
Objective;Best_Integer;Best_Bound
integral;446.2379;446.2379
CPXPARAM_MIP_Cuts_Disjunctive-LiftProj:Disjunctive 0
CPXPARAM_MIP_Cuts_Disjunctive-LiftProj:LiftProj 0
Instance20
Objective;Best_Integer;Best_Bound
283.8374;499.7053;283.8374
286.5947;335.4671;Cuts:6
293.0329;335.4671;Cuts:10
299.4561;315.2212;Cuts:10
300.7586;315.2212;Cuts:9
303.1519;315.2212;Cuts:8
303.2652;315.2212;LiftProj:4
303.5478;315.2212;LiftProj:7
303.8710;315.2212;LiftProj:4
304.8067;315.2212;LiftProj:4
305.0276;315.2212;LiftProj:4
305.1984;315.2212;LiftProj:3
305.4856;315.2212;LiftProj:3
305.6472;315.2212;Cuts:5
305.8391;315.2212;LiftProj:6
306.4704;315.2212;LiftProj:3
306.6298;315.2212;LiftProj:3
307.7557;315.2212;Cuts:5
307.8491;315.2212;LiftProj:2
307.9662;315.2212;LiftProj:3
308.0097;315.2212;LiftProj:3
308.3273;315.2212;Cuts:4
308.9306;315.2212;Cuts:4
309.4195;315.2212;LiftProj:7
309.6841;315.2212;Cuts:8
309.9415;315.2212;LiftProj:3
310.3744;315.2212;Cuts:6
310.8580;315.2212;LiftProj:2
311.3443;315.2212;LiftProj:3
311.4452;315.2212;LiftProj:3
313.8216;315.2212;LiftProj:2
314.8943;315.2212;Cuts:7
cutoff;278;0.00%
CPXPARAM_MIP_Cuts_Disjunctive-LiftProj:Disjunctive 7
CPXPARAM_MIP_Cuts_Disjunctive-LiftProj:LiftProj 0
Instance21
Objective;Best_Integer;Best_Bound
integral;283.8374;283.8374
CPXPARAM_MIP_Cuts_Disjunctive-LiftProj:Disjunctive 0
CPXPARAM_MIP_Cuts_Disjunctive-LiftProj:LiftProj 0
Instance22
Objective;Best_Integer;Best_Bound
286.9244;502.7786;286.9244
295.1862;406.3795;Cuts:9
302.3947;392.9654;Cuts:8
303.8517;331.4363;Cuts:5
305.0655;331.4363;Cuts:7
308.6568;331.4363;Cuts:6
308.8679;315.4732;LiftProj:1
308.9335;315.4732;LiftProj:2
309.1822;315.4732;LiftProj:1
312.3381;315.4732;LiftProj:3
cutoff;124;0.00%
CPXPARAM_MIP_Cuts_Disjunctive-LiftProj:Disjunctive 6
CPXPARAM_MIP_Cuts_Disjunctive-LiftProj:LiftProj 0
Instance23
Objective;Best_Integer;Best_Bound
integral;293.4740;293.4740
CPXPARAM_MIP_Cuts_Disjunctive-LiftProj:Disjunctive 0
CPXPARAM_MIP_Cuts_Disjunctive-LiftProj:LiftProj 0
Instance24
Objective;Best_Integer;Best_Bound
363.2658;473.7492;363.2658
366.2512;458.3613;Cuts:8
369.7366;444.0143;Cuts:13
372.4297;399.6484;Cuts:10
374.4975;399.6484;Cuts:13
378.6582;399.6484;Cuts:9
378.7449;399.6484;LiftProj:3
379.0099;399.6484;LiftProj:4
379.0603;399.6484;LiftProj:5
379.1560;399.6484;Cuts:6
379.1730;399.6484;LiftProj:4
379.2103;399.6484;LiftProj:5
379.6612;396.1684;379.7942
CPXPARAM_MIP_Cuts_Disjunctive-LiftProj:Disjunctive 8
CPXPARAM_MIP_Cuts_Disjunctive-LiftProj:LiftProj 5
Instance25
Objective;Best_Integer;Best_Bound
integral;372.4575;372.4575
CPXPARAM_MIP_Cuts_Disjunctive-LiftProj:Disjunctive 0
CPXPARAM_MIP_Cuts_Disjunctive-LiftProj:LiftProj 0
Instance26
Objective;Best_Integer;Best_Bound
372.1627;476.4585;372.1627
377.6661;476.4585;Cuts:6
381.6067;404.2019;Cuts:10
383.4396;399.6484;Cuts:9
384.7087;399.6484;Cuts:10
387.1324;399.6484;Cuts:10
387.2999;399.6484;LiftProj:4
387.6245;399.6484;LiftProj:4
387.7277;399.6484;LiftProj:4
388.1337;399.6484;LiftProj:4
388.3799;399.6484;LiftProj:4
389.2642;399.6484;LiftProj:3
389.2791;399.6484;LiftProj:6
389.5576;399.6484;LiftProj:5
389.8108;399.6484;LiftProj:4
389.8640;399.6484;LiftProj:3
389.8640;399.6484;390.7858
CPXPARAM_MIP_Cuts_Disjunctive-LiftProj:Disjunctive 12
CPXPARAM_MIP_Cuts_Disjunctive-LiftProj:LiftProj 1
Instance27
Objective;Best_Integer;Best_Bound
integral;385.0255;385.0255
CPXPARAM_MIP_Cuts_Disjunctive-LiftProj:Disjunctive 0
CPXPARAM_MIP_Cuts_Disjunctive-LiftProj:LiftProj 0
Instance28
Objective;Best_Integer;Best_Bound
601.4591;872.5219;601.4591
603.7638;737.8283;Cuts:4
611.7691;685.4619;Cuts:10
620.4593;652.5589;Cuts:11
625.0970;652.5589;Cuts:10
631.3239;652.5589;Cuts:8
632.4090;652.5589;Cuts:9
634.7454;652.5589;LiftProj:4
635.4378;652.5589;LiftProj:2
635.7020;652.5589;LiftProj:3
636.1039;652.5589;LiftProj:2
636.1228;652.5589;LiftProj:3
636.5768;652.5589;LiftProj:3
636.6391;652.5589;LiftProj:2
cutoff;636.6391;147
CPXPARAM_MIP_Cuts_Disjunctive-LiftProj:Disjunctive 12
CPXPARAM_MIP_Cuts_Disjunctive-LiftProj:LiftProj 2
Instance29
Objective;Best_Integer;Best_Bound
integral;596.9704;596.9704
CPXPARAM_MIP_Cuts_Disjunctive-LiftProj:Disjunctive 0
CPXPARAM_MIP_Cuts_Disjunctive-LiftProj:LiftProj 0
Instance30
Objective;Best_Integer;Best_Bound
601.4591;877.2624;601.4591
603.7062;696.2579;Disjcuts:4
615.1183;696.2579;Cuts:13
621.4358;652.5589;Cuts:11
623.7609;652.5589;Cuts:7
634.8753;652.5589;Cuts:13
635.6250;652.5589;LiftProj:4
636.4578;652.5589;LiftProj:4
637.1849;652.5589;LiftProj:4
638.8380;652.5589;LiftProj:3
640.8189;652.5589;LiftProj:2
643.6898;652.5589;LiftProj:1
644.5165;652.5589;LiftProj:4
644.7784;652.5589;LiftProj:2
647.8924;652.5589;LiftProj:4
cutoff;647.8924;173
CPXPARAM_MIP_Cuts_Disjunctive-LiftProj:Disjunctive 11
CPXPARAM_MIP_Cuts_Disjunctive-LiftProj:LiftProj 0
Instance31
Objective;Best_Integer;Best_Bound
integral;601.4591;601.4591
CPXPARAM_MIP_Cuts_Disjunctive-LiftProj:Disjunctive 0
CPXPARAM_MIP_Cuts_Disjunctive-LiftProj:LiftProj 0
Instance32
Objective;Best_Integer;Best_Bound
285.1772;538.6067;285.1772
296.8300;527.4518;Cuts:7
310.9266;398.4261;Cuts:11
323.4386;392.1998;Cuts:7
330.2956;392.1998;Cuts:7
338.2038;392.1998;Cuts:8
339.4390;392.1998;Cuts:4
341.7344;392.1998;LiftProj:3
342.3710;392.1998;Cuts:8
342.7176;392.1998;Cuts:7
343.0341;392.1998;LiftProj:4
343.1979;392.1998;LiftProj:4
343.7971;392.1998;LiftProj:6
343.9087;392.1998;Cuts:7
344.0828;392.1998;LiftProj:3
344.6934;392.1998;LiftProj:4
345.0549;392.1998;LiftProj:7
345.7699;392.1998;LiftProj:5
346.3714;392.1998;LiftProj:4
347.0679;392.1998;LiftProj:4
347.4267;392.1998;LiftProj:5
347.6281;392.1998;LiftProj:4
347.7029;392.1998;LiftProj:3
347.7657;392.1998;LiftProj:3
347.8333;392.1998;348.3522
CPXPARAM_MIP_Cuts_Disjunctive-LiftProj:Disjunctive 15
CPXPARAM_MIP_Cuts_Disjunctive-LiftProj:LiftProj 2
Instance33
Objective;Best_Integer;Best_Bound
304.9439;671.2898;304.9439
integral;304.9870;304.9870
CPXPARAM_MIP_Cuts_Disjunctive-LiftProj:Disjunctive 0
CPXPARAM_MIP_Cuts_Disjunctive-LiftProj:LiftProj 0
Instance34
Objective;Best_Integer;Best_Bound
304.9439;548.6165;304.9439
307.5007;522.3973;Cuts:7
317.6423;462.2964;Cuts:10
326.4461;398.4261;Cuts:12
332.8538;392.1998;Cuts:12
338.7795;392.1998;Cuts:13
340.6833;392.1998;Cuts:5
343.3103;392.1998;LiftProj:3
344.7980;392.1998;LiftProj:5
345.3041;392.1998;LiftProj:3
348.0808;392.1998;Cuts:5
348.8428;392.1998;LiftProj:5
349.2575;392.1998;LiftProj:4
349.4509;392.1998;LiftProj:4
349.8648;392.1998;LiftProj:3
350.2095;392.1998;LiftProj:5
350.6921;392.1998;LiftProj:4
351.0342;392.1998;LiftProj:5
351.2473;392.1998;LiftProj:3
352.4469;392.1998;LiftProj:4
352.9258;392.1998;LiftProj:5
353.6708;392.1998;LiftProj:8
354.1089;392.1998;LiftProj:13
354.2008;392.1998;LiftProj:5
354.3648;392.1998;LiftProj:5
354.4801;392.1998;LiftProj:4
355.3161;392.1998;LiftProj:4
355.9238;392.1998;LiftProj:4
356.0167;392.1998;LiftProj:4
356.4353;392.1998;LiftProj:5
356.9488;392.1998;LiftProj:5
356.9725;392.1998;LiftProj:5
357.8415;392.1998;358.9575
CPXPARAM_MIP_Cuts_Disjunctive-LiftProj:Disjunctive 19
CPXPARAM_MIP_Cuts_Disjunctive-LiftProj:LiftProj 1
Instance35
Objective;Best_Integer;Best_Bound
integral;363.5184;363.5184
CPXPARAM_MIP_Cuts_Disjunctive-LiftProj:Disjunctive 0
CPXPARAM_MIP_Cuts_Disjunctive-LiftProj:LiftProj 0
Instance36
Objective;Best_Integer;Best_Bound
431.0120;643.3001;431.0120
433.9774;591.9356;Disjcuts:6
440.2968;586.8010;Cuts:10
442.9258;497.5652;Cuts:9
447.5878;497.5652;Cuts:11
450.1330;497.5652;Cuts:13
451.2573;497.5652;Cuts:7
451.9291;497.5652;LiftProj:7
452.0860;497.5652;LiftProj:6
452.4067;497.5652;LiftProj:7
452.6443;497.5652;LiftProj:5
454.2491;497.5652;LiftProj:5
454.6513;497.5652;Cuts:6
454.9546;497.5652;LiftProj:5
455.0650;497.5652;LiftProj:4
455.1365;497.5652;LiftProj:4
455.1973;497.5652;LiftProj:5
455.1986;497.5652;LiftProj:3
455.6048;497.5652;455.6432
CPXPARAM_MIP_Cuts_Disjunctive-LiftProj:Disjunctive 14
CPXPARAM_MIP_Cuts_Disjunctive-LiftProj:LiftProj 4
Instance37
Objective;Best_Integer;Best_Bound
integral;431.0120;431.0120
CPXPARAM_MIP_Cuts_Disjunctive-LiftProj:Disjunctive 0
CPXPARAM_MIP_Cuts_Disjunctive-LiftProj:LiftProj 0
Instance38
Objective;Best_Integer;Best_Bound
431.2487;644.4799;431.2487
434.3898;591.9356;Cuts:5
440.7285;591.9356;Cuts:12
447.9657;534.0033;Cuts:11
449.3567;504.0961;Cuts:11
451.4159;504.0961;Cuts:14
453.0469;504.0961;Cuts:6
453.9748;504.0961;LiftProj:5
455.7799;504.0961;Cuts:11
457.8272;504.0961;LiftProj:5
458.4652;497.5652;LiftProj:9
459.0664;497.5652;LiftProj:5
459.3447;497.5652;LiftProj:7
459.5929;497.5652;Cuts:6
459.7776;497.5652;Cuts:8
460.7623;497.5652;LiftProj:7
461.2590;497.5652;LiftProj:7
463.1425;497.5652;Cuts:8
465.2654;497.5652;LiftProj:9
466.2342;497.5652;LiftProj:7
466.6307;497.5652;LiftProj:5
467.0464;497.5652;LiftProj:4
468.5250;497.5652;LiftProj:7
468.5829;497.5652;LiftProj:5
468.9013;497.5652;LiftProj:5
469.1935;497.5652;LiftProj:6
469.4713;497.5652;LiftProj:7
470.4262;497.5652;LiftProj:5
470.8701;497.5652;LiftProj:11
471.2848;497.5652;LiftProj:7
471.3087;497.5652;LiftProj:5
471.6692;497.5652;471.8106
CPXPARAM_MIP_Cuts_Disjunctive-LiftProj:Disjunctive 20
CPXPARAM_MIP_Cuts_Disjunctive-LiftProj:LiftProj 0
Instance39
Objective;Best_Integer;Best_Bound
cutoff;451.8439;34
cutoff;451.8439;34
CPXPARAM_MIP_Cuts_Disjunctive-LiftProj:Disjunctive 0
CPXPARAM_MIP_Cuts_Disjunctive-LiftProj:LiftProj 0
